0 615938 
1 613810 
2 613618 
3 613538 
4 613350 
5 610426 
6 604562 
7 602714 
8 600508 
9 599764 
10 599608 
11 596098 
12 593554 
13 593306 
14 591620 
15 591096 
16 585826 
17 585104 
18 584800 
19 583268 
20 579116 
21 576254 
22 575654 
23 575542 
24 572398 
25 571028 
26 569602 
27 566214 
28 565154 
29 563532 
30 560048 
31 558824 
32 556950 
33 548992 
34 548960 
35 547330 
36 546538 
37 542192 
38 542038 
39 541598 
40 539280 
41 539178 
42 537982 
43 534524 
44 533068 
45 532796 
46 530702 
47 527080 
48 524898 
49 522986 
50 522986 

